10	5
0	2	1	2
1	1	4
2	1	3
3	1	7
4	1	5
5	2	7	8
6	1	9
7	1	6
8	1	10
9	1	11
10	1	11
11	0
0	0	0	0	0	0	0
1	7	0	3	0	1	0
2	9	4	2	0	4	5
3	10	4	4	0	0	0
4	7	0	4	4	4	0
5	8	1	0	2	2	0
6	1	0	4	5	0	3
7	9	0	3	1	0	0
8	3	0	3	5	0	0
9	8	0	0	0	4	0
10	4	5	0	2	3	0
11	0	0	0	0	0	0
6	6	5	5	5
